(set-info :source |printed by MathSAT|)
(declare-fun |!{i}| () Int)
(declare-fun |!{i}.next| () Int)
(declare-fun |!{x}| () Int)
(declare-fun |!{x}.next| () Int)
(declare-fun |!{a1.1}| () (Array Int Int))
(declare-fun |!{a1.1}.next| () (Array Int Int))
(declare-fun |!{a2.2}| () (Array Int Int))
(declare-fun |!{a2.2}.next| () (Array Int Int))
(declare-fun |!pc[0]| () Bool)
(declare-fun |!pc[0].next| () Bool)
(declare-fun |!pc[1]| () Bool)
(declare-fun |!pc[1].next| () Bool)
(declare-fun |!pc[2]| () Bool)
(declare-fun |!pc[2].next| () Bool)
(declare-fun |%{x}#1| () Int)
(declare-fun |%{a1.1}#1| () (Array Int Int))
(declare-fun |%{a2.2}#1| () (Array Int Int))
(define-fun .def_26 () Bool (! |!pc[2]| :next |!pc[2].next|))
(define-fun .def_31 () Bool (not .def_26))
(define-fun .def_24 () Bool (! |!pc[1]| :next |!pc[1].next|))
(define-fun .def_29 () Bool (not .def_24))
(define-fun .def_22 () Bool (! |!pc[0]| :next |!pc[0].next|))
(define-fun .def_28 () Bool (not .def_22))
(define-fun .def_30 () Bool (and .def_28 .def_29))
(define-fun .def_32 () Bool (! (and .def_30 .def_31) :init true))
(define-fun .def_124 () Bool (and .def_22 .def_29))
(define-fun .def_125 () Bool (and .def_31 .def_124))
(define-fun .def_91 () Bool (not |!pc[0].next|))
(define-fun .def_92 () Bool (and |!pc[1].next| .def_91))
(define-fun .def_47 () Bool (not |!pc[2].next|))
(define-fun .def_93 () Bool (and .def_47 .def_92))
(define-fun .def_128 () Bool (and .def_93 .def_125))
(define-fun .def_119 () Bool (= |!{x}.next| 0))
(define-fun .def_8 () Int (! |!{i}| :next |!{i}.next|))
(define-fun .def_64 () Bool (= .def_8 |!{i}.next|))
(define-fun .def_120 () Bool (and .def_64 .def_119))
(define-fun .def_12 () (Array Int Int) (! |!{a1.1}| :next |!{a1.1}.next|))
(define-fun .def_67 () Bool (= .def_12 |!{a1.1}.next|))
(define-fun .def_121 () Bool (and .def_67 .def_120))
(define-fun .def_14 () (Array Int Int) (! |!{a2.2}| :next |!{a2.2}.next|))
(define-fun .def_69 () Bool (= .def_14 |!{a2.2}.next|))
(define-fun .def_122 () Bool (and .def_69 .def_121))
(define-fun .def_108 () Bool (<= 100000 .def_8))
(define-fun .def_123 () Bool (and .def_108 .def_122))
(define-fun .def_129 () Bool (and .def_123 .def_128))
(define-fun .def_45 () Bool (not |!pc[1].next|))
(define-fun .def_46 () Bool (and |!pc[0].next| .def_45))
(define-fun .def_48 () Bool (and .def_46 .def_47))
(define-fun .def_126 () Bool (and .def_48 .def_125))
(define-fun .def_112 () Int (* (- 1) |!{i}.next|))
(define-fun .def_113 () Int (+ .def_8 .def_112))
(define-fun .def_114 () Bool (= .def_113 (- 1)))
(define-fun .def_10 () Int (! |!{x}| :next |!{x}.next|))
(define-fun .def_65 () Bool (= .def_10 |!{x}.next|))
(define-fun .def_115 () Bool (and .def_65 .def_114))
(define-fun .def_116 () Bool (and .def_67 .def_115))
(define-fun .def_117 () Bool (and .def_69 .def_116))
(define-fun .def_109 () Bool (not .def_108))
(define-fun .def_118 () Bool (and .def_109 .def_117))
(define-fun .def_127 () Bool (and .def_118 .def_126))
(define-fun .def_130 () Bool (or .def_127 .def_129))
(define-fun .def_103 () Bool (and .def_22 .def_24))
(define-fun .def_104 () Bool (and .def_31 .def_103))
(define-fun .def_87 () Bool (and |!pc[0].next| |!pc[1].next|))
(define-fun .def_88 () Bool (and .def_47 .def_87))
(define-fun .def_105 () Bool (and .def_88 .def_104))
(define-fun .def_66 () Bool (and .def_64 .def_65))
(define-fun .def_68 () Bool (and .def_66 .def_67))
(define-fun .def_70 () Bool (and .def_68 .def_69))
(define-fun .def_106 () Bool (and .def_70 .def_105))
(define-fun .def_97 () Bool (and .def_45 .def_91))
(define-fun .def_98 () Bool (and |!pc[2].next| .def_97))
(define-fun .def_85 () Bool (and .def_24 .def_28))
(define-fun .def_86 () Bool (and .def_31 .def_85))
(define-fun .def_99 () Bool (and .def_86 .def_98))
(define-fun .def_53 () Bool (<= 100000 .def_10))
(define-fun .def_81 () Bool (and .def_53 .def_64))
(define-fun .def_82 () Bool (and .def_65 .def_81))
(define-fun .def_83 () Bool (and .def_67 .def_82))
(define-fun .def_84 () Bool (and .def_69 .def_83))
(define-fun .def_100 () Bool (and .def_84 .def_99))
(define-fun .def_94 () Bool (and .def_86 .def_93))
(define-fun .def_74 () Int (* (- 1) |!{x}.next|))
(define-fun .def_75 () Int (+ .def_10 .def_74))
(define-fun .def_76 () Bool (= .def_75 (- 1)))
(define-fun .def_77 () Bool (and .def_64 .def_76))
(define-fun .def_78 () Bool (and .def_67 .def_77))
(define-fun .def_79 () Bool (and .def_69 .def_78))
(define-fun .def_54 () Bool (not .def_53))
(define-fun .def_80 () Bool (and .def_54 .def_79))
(define-fun .def_95 () Bool (and .def_80 .def_94))
(define-fun .def_89 () Bool (and .def_86 .def_88))
(define-fun .def_56 () Int (select .def_14 .def_10))
(define-fun .def_55 () Int (select .def_12 .def_10))
(define-fun .def_57 () Bool (= .def_55 .def_56))
(define-fun .def_58 () Bool (not .def_57))
(define-fun .def_71 () Bool (and .def_58 .def_70))
(define-fun .def_72 () Bool (and .def_54 .def_71))
(define-fun .def_90 () Bool (and .def_72 .def_89))
(define-fun .def_96 () Bool (or .def_90 .def_95))
(define-fun .def_101 () Bool (or .def_96 .def_100))
(define-fun .def_49 () Bool (and .def_32 .def_48))
(define-fun .def_43 () Bool (= |!{a2.2}.next| |%{a2.2}#1|))
(define-fun .def_41 () Bool (= |!{a1.1}.next| |%{a1.1}#1|))
(define-fun .def_39 () Bool (= |!{x}.next| |%{x}#1|))
(define-fun .def_38 () Bool (= |!{i}.next| 0))
(define-fun .def_40 () Bool (and .def_38 .def_39))
(define-fun .def_42 () Bool (and .def_40 .def_41))
(define-fun .def_44 () Bool (and .def_42 .def_43))
(define-fun .def_50 () Bool (and .def_44 .def_49))
(define-fun .def_102 () Bool (or .def_50 .def_101))
(define-fun .def_107 () Bool (or .def_102 .def_106))
(define-fun .def_131 () Bool (! (or .def_107 .def_130) :trans true))
(define-fun .def_132 () Bool (! (not .def_104) :invar-property 0))
(assert true)
